NAME digestion_srl_ilp
* Max problem is converted into Min one
ROWS
 N  OBJ
 L  constraint1_2681
 L  constraint1_2682
 L  constraint1_2680
 L  constraint1_1790
 L  constraint1_2490
 L  constraint1_6440
 L  constraint2_2680
 L  constraint2_2681
 L  constraint2_2682
 L  constraint2_2683
 L  constraint2_1790
 L  constraint2_1791
 L  constraint2_1792
 L  constraint2_1793
 L  constraint2_2490
 L  constraint2_2491
 L  constraint2_2492
 L  constraint2_2493
 L  constraint2_6440
 L  constraint2_6441
 L  constraint2_6442
 L  constraint2_6443
COLUMNS
    MARKER    'MARKER'                 'INTORG'
    Z_268_1_0  OBJ       -2.0401316569426630e-02
    Z_268_1_0  constraint1_2681  1
    Z_268_1_0  constraint2_2680  1
    Z_268_1_1  OBJ       -3.8154033948870673e-02
    Z_268_1_1  constraint1_2681  1
    Z_268_1_1  constraint2_2681  1
    Z_268_1_2  OBJ       -6.4046784192724471e-02
    Z_268_1_2  constraint1_2681  1
    Z_268_1_2  constraint2_2682  1
    Z_268_1_3  OBJ       -1.8998782031080322e-01
    Z_268_1_3  constraint1_2681  1
    Z_268_1_3  constraint2_2683  1
    Z_268_2_0  OBJ       -1.2147636179918876e-01
    Z_268_2_0  constraint1_2682  1
    Z_268_2_0  constraint2_2680  1
    Z_268_2_1  OBJ       -8.4077847423782395e-02
    Z_268_2_1  constraint1_2682  1
    Z_268_2_1  constraint2_2681  1
    Z_268_2_2  OBJ       -1.1975775996745975e-02
    Z_268_2_2  constraint1_2682  1
    Z_268_2_2  constraint2_2682  1
    Z_268_2_3  OBJ       -8.3879002103055234e-01
    Z_268_2_3  constraint1_2682  1
    Z_268_2_3  constraint2_2683  1
    Z_268_0_0  OBJ       -4.8432745761523678e-03
    Z_268_0_0  constraint1_2680  1
    Z_268_0_0  constraint2_2680  1
    Z_268_0_1  OBJ       -2.3980536800814025e-03
    Z_268_0_1  constraint1_2680  1
    Z_268_0_1  constraint2_2681  1
    Z_268_0_2  OBJ       -8.7369251388627067e-01
    Z_268_0_2  constraint1_2680  1
    Z_268_0_2  constraint2_2682  1
    Z_268_0_3  OBJ       -1.2108091194468705e-02
    Z_268_0_3  constraint1_2680  1
    Z_268_0_3  constraint2_2683  1
    Z_179_0_0  OBJ       -2.0960086059835683e-03
    Z_179_0_0  constraint1_1790  1
    Z_179_0_0  constraint2_1790  1
    Z_179_0_1  OBJ       -7.2896971858043783e-03
    Z_179_0_1  constraint1_1790  1
    Z_179_0_1  constraint2_1791  1
    Z_179_0_2  OBJ       -8.8289532489991862e-01
    Z_179_0_2  constraint1_1790  1
    Z_179_0_2  constraint2_1792  1
    Z_179_0_3  OBJ       -2.2477005438819146e-02
    Z_179_0_3  constraint1_1790  1
    Z_179_0_3  constraint2_1793  1
    Z_249_0_0  OBJ       -1.4331638761617960e-02
    Z_249_0_0  constraint1_2490  1
    Z_249_0_0  constraint2_2490  1
    Z_249_0_1  OBJ       -5.4199725697855359e-03
    Z_249_0_1  constraint1_2490  1
    Z_249_0_1  constraint2_2491  1
    Z_249_0_2  OBJ       -6.9646515763168060e-01
    Z_249_0_2  constraint1_2490  1
    Z_249_0_2  constraint2_2492  1
    Z_249_0_3  OBJ       -1.6621938629796457e-02
    Z_249_0_3  constraint1_2490  1
    Z_249_0_3  constraint2_2493  1
    Z_644_0_0  OBJ       -2.5527449166441009e-03
    Z_644_0_0  constraint1_6440  1
    Z_644_0_0  constraint2_6440  1
    Z_644_0_1  OBJ       -3.6132726003234028e-03
    Z_644_0_1  constraint1_6440  1
    Z_644_0_1  constraint2_6441  1
    Z_644_0_2  OBJ       -8.7505983184688152e-01
    Z_644_0_2  constraint1_6440  1
    Z_644_0_2  constraint2_6442  1
    Z_644_0_3  OBJ       -1.8277896896477630e-02
    Z_644_0_3  constraint1_6440  1
    Z_644_0_3  constraint2_6443  1
    MARKER    'MARKER'                 'INTEND'
RHS
    RHS1      constraint1_2681  1
    RHS1      constraint1_2682  1
    RHS1      constraint1_2680  1
    RHS1      constraint1_1790  1
    RHS1      constraint1_2490  1
    RHS1      constraint1_6440  1
    RHS1      constraint2_2680  1
    RHS1      constraint2_2681  1
    RHS1      constraint2_2682  1
    RHS1      constraint2_2683  1
    RHS1      constraint2_1790  1
    RHS1      constraint2_1791  1
    RHS1      constraint2_1792  1
    RHS1      constraint2_1793  1
    RHS1      constraint2_2490  1
    RHS1      constraint2_2491  1
    RHS1      constraint2_2492  1
    RHS1      constraint2_2493  1
    RHS1      constraint2_6440  1
    RHS1      constraint2_6441  1
    RHS1      constraint2_6442  1
    RHS1      constraint2_6443  1
BOUNDS
 UP BND1      Z_268_1_0  1
 UP BND1      Z_268_1_1  1
 UP BND1      Z_268_1_2  1
 UP BND1      Z_268_1_3  1
 UP BND1      Z_268_2_0  1
 UP BND1      Z_268_2_1  1
 UP BND1      Z_268_2_2  1
 UP BND1      Z_268_2_3  1
 UP BND1      Z_268_0_0  1
 UP BND1      Z_268_0_1  1
 UP BND1      Z_268_0_2  1
 UP BND1      Z_268_0_3  1
 UP BND1      Z_179_0_0  1
 UP BND1      Z_179_0_1  1
 UP BND1      Z_179_0_2  1
 UP BND1      Z_179_0_3  1
 UP BND1      Z_249_0_0  1
 UP BND1      Z_249_0_1  1
 UP BND1      Z_249_0_2  1
 UP BND1      Z_249_0_3  1
 UP BND1      Z_644_0_0  1
 UP BND1      Z_644_0_1  1
 UP BND1      Z_644_0_2  1
 UP BND1      Z_644_0_3  1
QUADOBJ
    Z_268_0_0  Z_179_0_0  -1.9999999999999996e-01
    Z_268_0_0  Z_249_0_0  -2.1082813290605494e-06
    Z_268_0_0  Z_644_0_0  -1.9999999999999996e-01
    Z_268_0_1  Z_179_0_1  -1.9999999999999996e-01
    Z_268_0_1  Z_249_0_1  -2.1082813290605494e-06
    Z_268_0_1  Z_644_0_1  -1.9999999999999996e-01
    Z_268_0_2  Z_179_0_2  -1.9999999999999996e-01
    Z_268_0_2  Z_249_0_2  -2.1082813290605494e-06
    Z_268_0_2  Z_644_0_2  -1.9999999999999996e-01
    Z_268_0_3  Z_179_0_3  -1.9999999999999996e-01
    Z_268_0_3  Z_249_0_3  -2.1082813290605494e-06
    Z_268_0_3  Z_644_0_3  -1.9999999999999996e-01
    Z_179_0_0  Z_249_0_0  -2.1082813290605494e-06
    Z_179_0_0  Z_644_0_0  -1.9999999999999996e-01
    Z_179_0_1  Z_249_0_1  -2.1082813290605494e-06
    Z_179_0_1  Z_644_0_1  -1.9999999999999996e-01
    Z_179_0_2  Z_249_0_2  -2.1082813290605494e-06
    Z_179_0_2  Z_644_0_2  -1.9999999999999996e-01
    Z_179_0_3  Z_249_0_3  -2.1082813290605494e-06
    Z_179_0_3  Z_644_0_3  -1.9999999999999996e-01
    Z_249_0_0  Z_644_0_0  -2.1082813290605494e-06
    Z_249_0_1  Z_644_0_1  -2.1082813290605494e-06
    Z_249_0_2  Z_644_0_2  -2.1082813290605494e-06
    Z_249_0_3  Z_644_0_3  -2.1082813290605494e-06
ENDATA
